c turning on binary mode checking
c parsing input formula with 259840 variables and 1039934 clauses
c finished parsing, read 22535938 bytes from proof file
c detected empty clause; start verification via backward checking
c 6733 of 1039934 clauses in core                            
c 5914 of 580244 lemmas in core using 40617 resolution steps
c 0 RAT lemmas in core; 280 redundant literals in core lemmas
s VERIFIED
c verification time: 2.580 seconds
